Route #1: 1 1 30 22 5 14 8 25 42 1 
Route #2: 1 23 38 35 34 2 12 4 21 1 
Route #3: 1 17 20 7 18 32 39 9 1 
Route #4: 1 37 10 26 13 40 16 15 1 
Route #5: 1 31 41 27 33 44 6 1 
Route #6: 1 36 19 29 3 24 1 
Route #7: 1 43 11 28 1 

Cost 1494.34
Time 0.3534


 * Another infos *

 Iterations: 45 Time: 0.3534 sec - 0.0059 min - 0.0001 horas
0.0000 h 0.0059 min
Problem dimension: 45
